Mg Si
 1.0000000000000000
     3.8159999999999998    0.0000000000000000    0.0000000000000000
     0.0000000000000000    5.7240000000000002    0.0000000000000000
     0.0000000000000000    0.0000000000000000    8.2680000000000007
 Mg  Si 
   8   4
Cartesian
  0.0000000000000000  0.0000000000000000  0.0000000000000000
  0.0000000000000000  2.8620000000000001  4.1340000000000003
  1.9079999999999999  0.0000000000000000  4.1340000000000003
  1.9079999999999999  2.8620000000000001  0.0000000000000000
  1.9079999999999999  2.8620000000000001  4.1340000000000003
  0.0000000000000000  0.0000000000000000  4.1340000000000003
  0.0000000000000000  2.8620000000000001  0.0000000000000000
  1.9079999999999999  0.0000000000000000  0.0000000000000000
  0.9540000000000000  1.4310000000000000  2.0670000000000002
  2.8620000000000001  1.4310000000000000  2.0670000000000002
  0.9540000000000000  4.2930000000000001  2.0670000000000002
  0.9540000000000000  1.4310000000000000  6.2010000000000005
