Mg Si
 1.0000000000000000
     5.0880000000000010    0.0000000000000000    0.0000000000000000
     0.0000000000000000    8.9039999999999999    0.0000000000000000
     0.0000000000000000    0.0000000000000000    4.4520000000000000
 Mg  Si 
   8   4
Cartesian
  0.0000000000000000  0.0000000000000000  0.0000000000000000
  0.0000000000000000  4.4520000000000000  2.2260000000000000
  2.5440000000000005  0.0000000000000000  2.2260000000000000
  2.5440000000000005  4.4520000000000000  0.0000000000000000
  2.5440000000000005  4.4520000000000000  2.2260000000000000
  0.0000000000000000  0.0000000000000000  2.2260000000000000
  0.0000000000000000  4.4520000000000000  0.0000000000000000
  2.5440000000000005  0.0000000000000000  0.0000000000000000
  1.2720000000000002  2.2260000000000000  1.1130000000000000
  3.8160000000000007  2.2260000000000000  1.1130000000000000
  1.2720000000000002  6.6779999999999999  1.1130000000000000
  1.2720000000000002  2.2260000000000000  3.3390000000000000
