Mg Si
 1.0000000000000000
     6.3600000000000003    0.0000000000000000    0.0000000000000000
     0.0000000000000000    9.5400000000000009    0.0000000000000000
     0.0000000000000000    0.0000000000000000    8.2680000000000007
 Mg  Si 
   8   4
Cartesian
  0.0000000000000000  0.0000000000000000  0.0000000000000000
  0.0000000000000000  4.7700000000000005  4.1340000000000003
  3.1800000000000002  0.0000000000000000  4.1340000000000003
  3.1800000000000002  4.7700000000000005  0.0000000000000000
  3.1800000000000002  4.7700000000000005  4.1340000000000003
  0.0000000000000000  0.0000000000000000  4.1340000000000003
  0.0000000000000000  4.7700000000000005  0.0000000000000000
  3.1800000000000002  0.0000000000000000  0.0000000000000000
  1.5900000000000001  2.3850000000000002  2.0670000000000002
  4.7700000000000005  2.3850000000000002  2.0670000000000002
  1.5900000000000001  7.1550000000000011  2.0670000000000002
  1.5900000000000001  2.3850000000000002  6.2010000000000005
