Mg Si
 1.0000000000000000
     3.8159999999999998    0.0000000000000000    0.0000000000000000
     0.0000000000000000    7.6319999999999997    0.0000000000000000
     0.0000000000000000    0.0000000000000000    6.3600000000000003
 Mg  Si 
   8   4
Cartesian
  0.0000000000000000  0.0000000000000000  0.0000000000000000
  0.0000000000000000  3.8159999999999998  3.1800000000000002
  1.9079999999999999  0.0000000000000000  3.1800000000000002
  1.9079999999999999  3.8159999999999998  0.0000000000000000
  1.9079999999999999  3.8159999999999998  3.1800000000000002
  0.0000000000000000  0.0000000000000000  3.1800000000000002
  0.0000000000000000  3.8159999999999998  0.0000000000000000
  1.9079999999999999  0.0000000000000000  0.0000000000000000
  0.9540000000000000  1.9079999999999999  1.5900000000000001
  2.8620000000000001  1.9079999999999999  1.5900000000000001
  0.9540000000000000  5.7240000000000002  1.5900000000000001
  0.9540000000000000  1.9079999999999999  4.7700000000000005
