Mg Si
 1.0000000000000000
     4.4520000000000000    0.0000000000000000    0.0000000000000000
     0.0000000000000000    7.6319999999999997    0.0000000000000000
     0.0000000000000000    0.0000000000000000    8.9039999999999999
 Mg  Si 
   8   4
Cartesian
  0.0000000000000000  0.0000000000000000  0.0000000000000000
  0.0000000000000000  3.8159999999999998  4.4520000000000000
  2.2260000000000000  0.0000000000000000  4.4520000000000000
  2.2260000000000000  3.8159999999999998  0.0000000000000000
  2.2260000000000000  3.8159999999999998  4.4520000000000000
  0.0000000000000000  0.0000000000000000  4.4520000000000000
  0.0000000000000000  3.8159999999999998  0.0000000000000000
  2.2260000000000000  0.0000000000000000  0.0000000000000000
  1.1130000000000000  1.9079999999999999  2.2260000000000000
  3.3390000000000000  1.9079999999999999  2.2260000000000000
  1.1130000000000000  5.7240000000000002  2.2260000000000000
  1.1130000000000000  1.9079999999999999  6.6779999999999999
