Mg Si
 1.0000000000000000
     7.6319999999999997    0.0000000000000000    0.0000000000000000
     0.0000000000000000    3.8159999999999998    0.0000000000000000
     0.0000000000000000    0.0000000000000000    8.2680000000000007
 Mg  Si 
   8   4
Cartesian
  0.0000000000000000  0.0000000000000000  0.0000000000000000
  0.0000000000000000  1.9079999999999999  4.1340000000000003
  3.8159999999999998  0.0000000000000000  4.1340000000000003
  3.8159999999999998  1.9079999999999999  0.0000000000000000
  3.8159999999999998  1.9079999999999999  4.1340000000000003
  0.0000000000000000  0.0000000000000000  4.1340000000000003
  0.0000000000000000  1.9079999999999999  0.0000000000000000
  3.8159999999999998  0.0000000000000000  0.0000000000000000
  1.9079999999999999  0.9540000000000000  2.0670000000000002
  5.7240000000000002  0.9540000000000000  2.0670000000000002
  1.9079999999999999  2.8620000000000001  2.0670000000000002
  1.9079999999999999  0.9540000000000000  6.2010000000000005
