Mg Si
 1.0000000000000000
     5.0880000000000010    0.0000000000000000    0.0000000000000000
     0.0000000000000000    9.5400000000000009    0.0000000000000000
     0.0000000000000000    0.0000000000000000    6.9960000000000013
 Mg  Si 
   8   4
Cartesian
  0.0000000000000000  0.0000000000000000  0.0000000000000000
  0.0000000000000000  4.7700000000000005  3.4980000000000007
  2.5440000000000005  0.0000000000000000  3.4980000000000007
  2.5440000000000005  4.7700000000000005  0.0000000000000000
  2.5440000000000005  4.7700000000000005  3.4980000000000007
  0.0000000000000000  0.0000000000000000  3.4980000000000007
  0.0000000000000000  4.7700000000000005  0.0000000000000000
  2.5440000000000005  0.0000000000000000  0.0000000000000000
  1.2720000000000002  2.3850000000000002  1.7490000000000003
  3.8160000000000007  2.3850000000000002  1.7490000000000003
  1.2720000000000002  7.1550000000000011  1.7490000000000003
  1.2720000000000002  2.3850000000000002  5.2470000000000008
