Mg Si
 1.0000000000000000
     8.2680000000000007    0.0000000000000000    0.0000000000000000
     0.0000000000000000    6.9960000000000013    0.0000000000000000
     0.0000000000000000    0.0000000000000000    8.9039999999999999
 Mg  Si 
   8   4
Cartesian
  0.0000000000000000  0.0000000000000000  0.0000000000000000
  0.0000000000000000  3.4980000000000007  4.4520000000000000
  4.1340000000000003  0.0000000000000000  4.4520000000000000
  4.1340000000000003  3.4980000000000007  0.0000000000000000
  4.1340000000000003  3.4980000000000007  4.4520000000000000
  0.0000000000000000  0.0000000000000000  4.4520000000000000
  0.0000000000000000  3.4980000000000007  0.0000000000000000
  4.1340000000000003  0.0000000000000000  0.0000000000000000
  2.0670000000000002  1.7490000000000003  2.2260000000000000
  6.2010000000000005  1.7490000000000003  2.2260000000000000
  2.0670000000000002  5.2470000000000008  2.2260000000000000
  2.0670000000000002  1.7490000000000003  6.6779999999999999
