Mg Si
 1.0000000000000000
     3.1800000000000002    0.0000000000000000    0.0000000000000000
     0.0000000000000000    9.5400000000000009    0.0000000000000000
     0.0000000000000000    0.0000000000000000    7.6319999999999997
 Mg  Si 
   8   4
Cartesian
  0.0000000000000000  0.0000000000000000  0.0000000000000000
  0.0000000000000000  4.7700000000000005  3.8159999999999998
  1.5900000000000001  0.0000000000000000  3.8159999999999998
  1.5900000000000001  4.7700000000000005  0.0000000000000000
  1.5900000000000001  4.7700000000000005  3.8159999999999998
  0.0000000000000000  0.0000000000000000  3.8159999999999998
  0.0000000000000000  4.7700000000000005  0.0000000000000000
  1.5900000000000001  0.0000000000000000  0.0000000000000000
  0.7950000000000000  2.3850000000000002  1.9079999999999999
  2.3850000000000002  2.3850000000000002  1.9079999999999999
  0.7950000000000000  7.1550000000000011  1.9079999999999999
  0.7950000000000000  2.3850000000000002  5.7240000000000002
