Mg Si
 1.0000000000000000
     5.0880000000000010    0.0000000000000000    0.0000000000000000
     0.0000000000000000    5.0880000000000010    0.0000000000000000
     0.0000000000000000    0.0000000000000000    5.7240000000000002
 Mg  Si 
   8   4
Cartesian
  0.0000000000000000  0.0000000000000000  0.0000000000000000
  0.0000000000000000  2.5440000000000005  2.8620000000000001
  2.5440000000000005  0.0000000000000000  2.8620000000000001
  2.5440000000000005  2.5440000000000005  0.0000000000000000
  2.5440000000000005  2.5440000000000005  2.8620000000000001
  0.0000000000000000  0.0000000000000000  2.8620000000000001
  0.0000000000000000  2.5440000000000005  0.0000000000000000
  2.5440000000000005  0.0000000000000000  0.0000000000000000
  1.2720000000000002  1.2720000000000002  1.4310000000000000
  3.8160000000000007  1.2720000000000002  1.4310000000000000
  1.2720000000000002  3.8160000000000007  1.4310000000000000
  1.2720000000000002  1.2720000000000002  4.2930000000000001
