Mg Si
 1.0000000000000000
     7.6319999999999997    0.0000000000000000    0.0000000000000000
     0.0000000000000000    6.3600000000000003    0.0000000000000000
     0.0000000000000000    0.0000000000000000    8.9039999999999999
 Mg  Si 
   8   4
Cartesian
  0.0000000000000000  0.0000000000000000  0.0000000000000000
  0.0000000000000000  3.1800000000000002  4.4520000000000000
  3.8159999999999998  0.0000000000000000  4.4520000000000000
  3.8159999999999998  3.1800000000000002  0.0000000000000000
  3.8159999999999998  3.1800000000000002  4.4520000000000000
  0.0000000000000000  0.0000000000000000  4.4520000000000000
  0.0000000000000000  3.1800000000000002  0.0000000000000000
  3.8159999999999998  0.0000000000000000  0.0000000000000000
  1.9079999999999999  1.5900000000000001  2.2260000000000000
  5.7240000000000002  1.5900000000000001  2.2260000000000000
  1.9079999999999999  4.7700000000000005  2.2260000000000000
  1.9079999999999999  1.5900000000000001  6.6779999999999999
