Mg Si
 1.0000000000000000
     6.9960000000000013    0.0000000000000000    0.0000000000000000
     0.0000000000000000    8.2680000000000007    0.0000000000000000
     0.0000000000000000    0.0000000000000000    3.1800000000000002
 Mg  Si 
   8   4
Cartesian
  0.0000000000000000  0.0000000000000000  0.0000000000000000
  0.0000000000000000  4.1340000000000003  1.5900000000000001
  3.4980000000000007  0.0000000000000000  1.5900000000000001
  3.4980000000000007  4.1340000000000003  0.0000000000000000
  3.4980000000000007  4.1340000000000003  1.5900000000000001
  0.0000000000000000  0.0000000000000000  1.5900000000000001
  0.0000000000000000  4.1340000000000003  0.0000000000000000
  3.4980000000000007  0.0000000000000000  0.0000000000000000
  1.7490000000000003  2.0670000000000002  0.7950000000000000
  5.2470000000000008  2.0670000000000002  0.7950000000000000
  1.7490000000000003  6.2010000000000005  0.7950000000000000
  1.7490000000000003  2.0670000000000002  2.3850000000000002
