Mg Si
 1.0000000000000000
     5.0880000000000010    0.0000000000000000    0.0000000000000000
     0.0000000000000000    3.8159999999999998    0.0000000000000000
     0.0000000000000000    0.0000000000000000    5.0880000000000010
 Mg  Si 
   8   4
Cartesian
  0.0000000000000000  0.0000000000000000  0.0000000000000000
  0.0000000000000000  1.9079999999999999  2.5440000000000005
  2.5440000000000005  0.0000000000000000  2.5440000000000005
  2.5440000000000005  1.9079999999999999  0.0000000000000000
  2.5440000000000005  1.9079999999999999  2.5440000000000005
  0.0000000000000000  0.0000000000000000  2.5440000000000005
  0.0000000000000000  1.9079999999999999  0.0000000000000000
  2.5440000000000005  0.0000000000000000  0.0000000000000000
  1.2720000000000002  0.9540000000000000  1.2720000000000002
  3.8160000000000007  0.9540000000000000  1.2720000000000002
  1.2720000000000002  2.8620000000000001  1.2720000000000002
  1.2720000000000002  0.9540000000000000  3.8160000000000007
