Mg Si
 1.0000000000000000
     5.7240000000000002    0.0000000000000000    0.0000000000000000
     0.0000000000000000    6.9960000000000013    0.0000000000000000
     0.0000000000000000    0.0000000000000000    6.3600000000000003
 Mg  Si 
   8   4
Cartesian
  0.0000000000000000  0.0000000000000000  0.0000000000000000
  0.0000000000000000  3.4980000000000007  3.1800000000000002
  2.8620000000000001  0.0000000000000000  3.1800000000000002
  2.8620000000000001  3.4980000000000007  0.0000000000000000
  2.8620000000000001  3.4980000000000007  3.1800000000000002
  0.0000000000000000  0.0000000000000000  3.1800000000000002
  0.0000000000000000  3.4980000000000007  0.0000000000000000
  2.8620000000000001  0.0000000000000000  0.0000000000000000
  1.4310000000000000  1.7490000000000003  1.5900000000000001
  4.2930000000000001  1.7490000000000003  1.5900000000000001
  1.4310000000000000  5.2470000000000008  1.5900000000000001
  1.4310000000000000  1.7490000000000003  4.7700000000000005
