Mg Si
 1.0000000000000000
     6.9960000000000013    0.0000000000000000    0.0000000000000000
     0.0000000000000000    4.4520000000000000    0.0000000000000000
     0.0000000000000000    0.0000000000000000    5.0880000000000010
 Mg  Si 
   8   4
Cartesian
  0.0000000000000000  0.0000000000000000  0.0000000000000000
  0.0000000000000000  2.2260000000000000  2.5440000000000005
  3.4980000000000007  0.0000000000000000  2.5440000000000005
  3.4980000000000007  2.2260000000000000  0.0000000000000000
  3.4980000000000007  2.2260000000000000  2.5440000000000005
  0.0000000000000000  0.0000000000000000  2.5440000000000005
  0.0000000000000000  2.2260000000000000  0.0000000000000000
  3.4980000000000007  0.0000000000000000  0.0000000000000000
  1.7490000000000003  1.1130000000000000  1.2720000000000002
  5.2470000000000008  1.1130000000000000  1.2720000000000002
  1.7490000000000003  3.3390000000000000  1.2720000000000002
  1.7490000000000003  1.1130000000000000  3.8160000000000007
