Mg Si
 1.0000000000000000
     3.1800000000000002    0.0000000000000000    0.0000000000000000
     0.0000000000000000    6.3600000000000003    0.0000000000000000
     0.0000000000000000    0.0000000000000000    8.9039999999999999
 Mg  Si 
   8   4
Cartesian
  0.0000000000000000  0.0000000000000000  0.0000000000000000
  0.0000000000000000  3.1800000000000002  4.4520000000000000
  1.5900000000000001  0.0000000000000000  4.4520000000000000
  1.5900000000000001  3.1800000000000002  0.0000000000000000
  1.5900000000000001  3.1800000000000002  4.4520000000000000
  0.0000000000000000  0.0000000000000000  4.4520000000000000
  0.0000000000000000  3.1800000000000002  0.0000000000000000
  1.5900000000000001  0.0000000000000000  0.0000000000000000
  0.7950000000000000  1.5900000000000001  2.2260000000000000
  2.3850000000000002  1.5900000000000001  2.2260000000000000
  0.7950000000000000  4.7700000000000005  2.2260000000000000
  0.7950000000000000  1.5900000000000001  6.6779999999999999
