Mg Si
 1.0000000000000000
     5.0880000000000010    0.0000000000000000    0.0000000000000000
     0.0000000000000000    6.3600000000000003    0.0000000000000000
     0.0000000000000000    0.0000000000000000    9.5400000000000009
 Mg  Si 
   8   4
Cartesian
  0.0000000000000000  0.0000000000000000  0.0000000000000000
  0.0000000000000000  3.1800000000000002  4.7700000000000005
  2.5440000000000005  0.0000000000000000  4.7700000000000005
  2.5440000000000005  3.1800000000000002  0.0000000000000000
  2.5440000000000005  3.1800000000000002  4.7700000000000005
  0.0000000000000000  0.0000000000000000  4.7700000000000005
  0.0000000000000000  3.1800000000000002  0.0000000000000000
  2.5440000000000005  0.0000000000000000  0.0000000000000000
  1.2720000000000002  1.5900000000000001  2.3850000000000002
  3.8160000000000007  1.5900000000000001  2.3850000000000002
  1.2720000000000002  4.7700000000000005  2.3850000000000002
  1.2720000000000002  1.5900000000000001  7.1550000000000011
