Mg Si
 1.0000000000000000
     5.0880000000000010    0.0000000000000000    0.0000000000000000
     0.0000000000000000    3.1800000000000002    0.0000000000000000
     0.0000000000000000    0.0000000000000000    7.6319999999999997
 Mg  Si 
   8   4
Cartesian
  0.0000000000000000  0.0000000000000000  0.0000000000000000
  0.0000000000000000  1.5900000000000001  3.8159999999999998
  2.5440000000000005  0.0000000000000000  3.8159999999999998
  2.5440000000000005  1.5900000000000001  0.0000000000000000
  2.5440000000000005  1.5900000000000001  3.8159999999999998
  0.0000000000000000  0.0000000000000000  3.8159999999999998
  0.0000000000000000  1.5900000000000001  0.0000000000000000
  2.5440000000000005  0.0000000000000000  0.0000000000000000
  1.2720000000000002  0.7950000000000000  1.9079999999999999
  3.8160000000000007  0.7950000000000000  1.9079999999999999
  1.2720000000000002  2.3850000000000002  1.9079999999999999
  1.2720000000000002  0.7950000000000000  5.7240000000000002
