Mg Si
 1.0000000000000000
     6.3600000000000003    0.0000000000000000    0.0000000000000000
     0.0000000000000000    6.9960000000000013    0.0000000000000000
     0.0000000000000000    0.0000000000000000    4.4520000000000000
 Mg  Si 
   8   4
Cartesian
  0.0000000000000000  0.0000000000000000  0.0000000000000000
  0.0000000000000000  3.4980000000000007  2.2260000000000000
  3.1800000000000002  0.0000000000000000  2.2260000000000000
  3.1800000000000002  3.4980000000000007  0.0000000000000000
  3.1800000000000002  3.4980000000000007  2.2260000000000000
  0.0000000000000000  0.0000000000000000  2.2260000000000000
  0.0000000000000000  3.4980000000000007  0.0000000000000000
  3.1800000000000002  0.0000000000000000  0.0000000000000000
  1.5900000000000001  1.7490000000000003  1.1130000000000000
  4.7700000000000005  1.7490000000000003  1.1130000000000000
  1.5900000000000001  5.2470000000000008  1.1130000000000000
  1.5900000000000001  1.7490000000000003  3.3390000000000000
