Mg Si
 1.0000000000000000
     6.9960000000000013    0.0000000000000000    0.0000000000000000
     0.0000000000000000    7.6319999999999997    0.0000000000000000
     0.0000000000000000    0.0000000000000000    6.9960000000000013
 Mg  Si 
   8   4
Cartesian
  0.0000000000000000  0.0000000000000000  0.0000000000000000
  0.0000000000000000  3.8159999999999998  3.4980000000000007
  3.4980000000000007  0.0000000000000000  3.4980000000000007
  3.4980000000000007  3.8159999999999998  0.0000000000000000
  3.4980000000000007  3.8159999999999998  3.4980000000000007
  0.0000000000000000  0.0000000000000000  3.4980000000000007
  0.0000000000000000  3.8159999999999998  0.0000000000000000
  3.4980000000000007  0.0000000000000000  0.0000000000000000
  1.7490000000000003  1.9079999999999999  1.7490000000000003
  5.2470000000000008  1.9079999999999999  1.7490000000000003
  1.7490000000000003  5.7240000000000002  1.7490000000000003
  1.7490000000000003  1.9079999999999999  5.2470000000000008
