Mg Si
 1.0000000000000000
     3.8159999999999998    0.0000000000000000    0.0000000000000000
     0.0000000000000000    9.5400000000000009    0.0000000000000000
     0.0000000000000000    0.0000000000000000    5.7240000000000002
 Mg  Si 
   8   4
Cartesian
  0.0000000000000000  0.0000000000000000  0.0000000000000000
  0.0000000000000000  4.7700000000000005  2.8620000000000001
  1.9079999999999999  0.0000000000000000  2.8620000000000001
  1.9079999999999999  4.7700000000000005  0.0000000000000000
  1.9079999999999999  4.7700000000000005  2.8620000000000001
  0.0000000000000000  0.0000000000000000  2.8620000000000001
  0.0000000000000000  4.7700000000000005  0.0000000000000000
  1.9079999999999999  0.0000000000000000  0.0000000000000000
  0.9540000000000000  2.3850000000000002  1.4310000000000000
  2.8620000000000001  2.3850000000000002  1.4310000000000000
  0.9540000000000000  7.1550000000000011  1.4310000000000000
  0.9540000000000000  2.3850000000000002  4.2930000000000001
