Mg Si
 1.0000000000000000
     3.8159999999999998    0.0000000000000000    0.0000000000000000
     0.0000000000000000    3.8159999999999998    0.0000000000000000
     0.0000000000000000    0.0000000000000000    8.9039999999999999
 Mg  Si 
   8   4
Cartesian
  0.0000000000000000  0.0000000000000000  0.0000000000000000
  0.0000000000000000  1.9079999999999999  4.4520000000000000
  1.9079999999999999  0.0000000000000000  4.4520000000000000
  1.9079999999999999  1.9079999999999999  0.0000000000000000
  1.9079999999999999  1.9079999999999999  4.4520000000000000
  0.0000000000000000  0.0000000000000000  4.4520000000000000
  0.0000000000000000  1.9079999999999999  0.0000000000000000
  1.9079999999999999  0.0000000000000000  0.0000000000000000
  0.9540000000000000  0.9540000000000000  2.2260000000000000
  2.8620000000000001  0.9540000000000000  2.2260000000000000
  0.9540000000000000  2.8620000000000001  2.2260000000000000
  0.9540000000000000  0.9540000000000000  6.6779999999999999
