Mg Si
 1.0000000000000000
     4.4520000000000000    0.0000000000000000    0.0000000000000000
     0.0000000000000000    5.7240000000000002    0.0000000000000000
     0.0000000000000000    0.0000000000000000    9.5400000000000009
 Mg  Si 
   8   4
Cartesian
  0.0000000000000000  0.0000000000000000  0.0000000000000000
  0.0000000000000000  2.8620000000000001  4.7700000000000005
  2.2260000000000000  0.0000000000000000  4.7700000000000005
  2.2260000000000000  2.8620000000000001  0.0000000000000000
  2.2260000000000000  2.8620000000000001  4.7700000000000005
  0.0000000000000000  0.0000000000000000  4.7700000000000005
  0.0000000000000000  2.8620000000000001  0.0000000000000000
  2.2260000000000000  0.0000000000000000  0.0000000000000000
  1.1130000000000000  1.4310000000000000  2.3850000000000002
  3.3390000000000000  1.4310000000000000  2.3850000000000002
  1.1130000000000000  4.2930000000000001  2.3850000000000002
  1.1130000000000000  1.4310000000000000  7.1550000000000011
