Mg Si
 1.0000000000000000
     5.0880000000000010    0.0000000000000000    0.0000000000000000
     0.0000000000000000    8.9039999999999999    0.0000000000000000
     0.0000000000000000    0.0000000000000000    8.2680000000000007
 Mg  Si 
   8   4
Cartesian
  0.0000000000000000  0.0000000000000000  0.0000000000000000
  0.0000000000000000  4.4520000000000000  4.1340000000000003
  2.5440000000000005  0.0000000000000000  4.1340000000000003
  2.5440000000000005  4.4520000000000000  0.0000000000000000
  2.5440000000000005  4.4520000000000000  4.1340000000000003
  0.0000000000000000  0.0000000000000000  4.1340000000000003
  0.0000000000000000  4.4520000000000000  0.0000000000000000
  2.5440000000000005  0.0000000000000000  0.0000000000000000
  1.2720000000000002  2.2260000000000000  2.0670000000000002
  3.8160000000000007  2.2260000000000000  2.0670000000000002
  1.2720000000000002  6.6779999999999999  2.0670000000000002
  1.2720000000000002  2.2260000000000000  6.2010000000000005
